r = [
0,36,51,69,138,77,82,68,96,13,66,0
];
p = [
0,20,10,26,19,21,1,27,27,6,12,0
];
e = [
0,20,3,9,19,18,8,14,19,20,18,0
];
d = [
0,58,62,95,161,100,90,95,123,35,78,163
];
d_bar = [
0,60,63,98,163,102,91,98,126,36,79,163
];
w = [
0,10,3,3,9.5,9,8,4.666666667,6.333333333,20,18,0
];
